     Program PWSCF v.6.3 starts on 10Nov2020 at 14:37:51

     K-points division:     npool     =      96
     Reading input from scf.in
Warning: card &IONS ignored
Warning: card / ignored
Warning: card &CELL ignored
Warning: card / ignored

     Current dimensions of program PWSCF are:
     Max number of different atomic species (ntypx) = 10
     Max number of k-points (npk) =  40000
     Max angular momentum in pseudopotentials (lmaxx) =  3

     Subspace diagonalization in iterative solution of the eigenvalue problem:
     a serial algorithm will be used

     bravais-lattice index     =            0
     lattice parameter (alat)  =       8.3266  a.u.
     unit-cell volume          =     359.5699 (a.u.)^3
     number of atoms/cell      =            2
     number of atomic types    =            1
     number of electrons       =        28.00
     number of Kohn-Sham states=           18
     kinetic-energy cutoff     =      80.0000  Ry
     charge density cutoff     =     640.0000  Ry
     convergence threshold     =      1.0E-13
     mixing beta               =       0.7000
     number of iterations used =            8  plain     mixing
     Exchange-correlation      = SLA  PW   PSX  PSC ( 1  4 10  8 0 0)

     celldm(1)=   8.326557  celldm(2)=   0.000000  celldm(3)=   0.000000
     celldm(4)=   0.000000  celldm(5)=   0.000000  celldm(6)=   0.000000

     crystal axes: (cart. coord. in units of alat)
               a(1) = (  -0.660544   0.660544   0.356882 )
               a(2) = (   0.660544  -0.660544   0.356882 )
               a(3) = (   0.660544   0.660544  -0.356882 )

     reciprocal axes: (cart. coord. in units 2 pi/alat)
               b(1) = (  0.000000  0.756952  1.401025 )
               b(2) = (  0.756952  0.000000  1.401025 )
               b(3) = (  0.756952  0.756952  0.000000 )

     PseudoPot. # 1 for Sn read from file:
     /n/home08/xiey/q-e/pseudo/sn_pbesol_v1.4.uspp.F.UPF
     MD5 check sum: 463fec1d5456f1e96ec1bfcad4b7b038
     Pseudo is Ultrasoft + core correction, Zval = 14.0
     Generated by new atomic code, or converted to UPF format
     Using radial grid of  891 points,  6 beta functions with:
                l(1) =   0
                l(2) =   0
                l(3) =   1
                l(4) =   1
                l(5) =   2
                l(6) =   2
     Q(r) pseudized with  8 coefficients,  rinner =    1.350   1.350   1.350
                                                       1.350   1.350

     atomic species   valence    mass     pseudopotential
        Sn            14.00   118.71000     Sn( 1.00)

     16 Sym. Ops., with inversion, found ( 8 have fractional translation)

                                    s                        frac. trans.

      isym =  1     identity

 cryst.   s( 1) = (     1          0          0      )
                  (     0          1          0      )
                  (     0          0          1      )

 cart.    s( 1) = (  1.0000000  0.0000000  0.0000000 )
                  (  0.0000000  1.0000000  0.0000000 )
                  (  0.0000000  0.0000000  1.0000000 )

      isym =  2     180 deg rotation - cart. axis [0,0,1]

[...]

 cryst.   s( 3) = (     0          0          1      )    f =( -0.2500000 )
                  (    -1         -1         -1      )       (  0.2500000 )
                  (     1          0          0      )       (  0.5000000 )

 cart.    s( 3) = ( -1.0000000  0.0000000  0.0000000 )    f =(  0.6605436 )
                  (  0.0000000  1.0000000  0.0000000 )       (  0.0000000 )
                  (  0.0000000  0.0000000 -1.0000000 )       ( -0.1784408 )

[...]

 cryst.   s( 6) = (     0         -1          0      )
                  (    -1          0          0      )
                  (     0          0         -1      )

 cart.    s( 6) = (  0.0000000 -1.0000000  0.0000000 )
                  ( -1.0000000  0.0000000  0.0000000 )
                  (  0.0000000  0.0000000 -1.0000000 )

[...]

      isym =  8      90 deg rotation - cart. axis [0,0,1]

[...]

      isym =  9     inversion

 cryst.   s( 9) = (    -1          0          0      )    f =( -0.2500000 )
                  (     0         -1          0      )       (  0.2500000 )
                  (     0          0         -1      )       (  0.5000000 )

 cart.    s( 9) = ( -1.0000000  0.0000000  0.0000000 )    f =(  0.6605436 )
                  (  0.0000000 -1.0000000  0.0000000 )       (  0.0000000 )
                  (  0.0000000  0.0000000 -1.0000000 )       ( -0.1784408 )

      isym = 10     inv. 180 deg rotation - cart. axis [0,0,1]

 cryst.   s(10) = (     0         -1          0      )    f =( -0.2500000 )
                  (    -1          0          0      )       (  0.2500000 )
                  (     1          1          1      )       ( -0.5000000 )

 cart.    s(10) = (  1.0000000  0.0000000  0.0000000 )    f =(  0.0000000 )
                  (  0.0000000  1.0000000  0.0000000 )       ( -0.6605436 )
                  (  0.0000000  0.0000000 -1.0000000 )       (  0.1784408 )

[...]

 cryst.   s(11) = (     0          0         -1      )
                  (     1          1          1      )
                  (    -1          0          0      )

 cart.    s(11) = (  1.0000000  0.0000000  0.0000000 )
                  (  0.0000000 -1.0000000  0.0000000 )
                  (  0.0000000  0.0000000  1.0000000 )

[...]

 cryst.   s(14) = (     0          1          0      )    f =( -0.2500000 )
                  (     1          0          0      )       (  0.2500000 )
                  (     0          0          1      )       ( -0.5000000 )

 cart.    s(14) = (  0.0000000  1.0000000  0.0000000 )    f =(  0.0000000 )
                  (  1.0000000  0.0000000  0.0000000 )       ( -0.6605436 )
                  (  0.0000000  0.0000000  1.0000000 )       (  0.1784408 )

[...]

      isym = 16     inv.  90 deg rotation - cart. axis [0,0,1]

 cryst.   s(16) = (     0          0          1      )
                  (    -1         -1         -1      )
                  (     0          1          0      )

 cart.    s(16) = (  0.0000000  1.0000000  0.0000000 )
                  ( -1.0000000  0.0000000  0.0000000 )
                  (  0.0000000  0.0000000 -1.0000000 )

   Cartesian axes

     site n.     atom                  positions (alat units)
         1           Sn  tau(   1) = (   0.0000000   0.0000000   0.0000000  )
         2           Sn  tau(   2) = (   0.6605436   0.0000000   0.1784408  )

   Crystallographic axes

     site n.     atom                  positions (cryst. coord.)
         1           Sn  tau(   1) = (  0.0000000  0.0000000  0.0000000  )
         2           Sn  tau(   2) = (  0.2500000  0.7500000  0.5000000  )

     number of k points=   349  Marzari-Vanderbilt smearing, width (Ry)=  0.0100
                       cart. coord. in units 2pi/alat
        k(    1) = (   0.0000000   0.0000000   0.0000000), wk =   0.0004883
        k(    2) = (   0.0473095   0.0473095   0.0000000), wk =   0.0019531
        k(    3) = (   0.0946190   0.0946190   0.0000000), wk =   0.0019531
        k(    4) = (   0.1419286   0.1419286   0.0000000), wk =   0.0019531
        k(    5) = (   0.1892381   0.1892381   0.0000000), wk =   0.0019531
        k(    6) = (   0.2365476   0.2365476   0.0000000), wk =   0.0019531
        k(    7) = (   0.2838571   0.2838571   0.0000000), wk =   0.0019531
        k(    8) = (   0.3311667   0.3311667   0.0000000), wk =   0.0019531
        k(    9) = (  -0.3784762  -0.3784762   0.0000000), wk =   0.0009766
        k(   10) = (   0.0473095   0.0000000   0.0875641), wk =   0.0039062
        k(   11) = (   0.0946190   0.0473095   0.0875641), wk =   0.0078125
        k(   12) = (   0.1419286   0.0946190   0.0875641), wk =   0.0078125
        k(   13) = (   0.1892381   0.1419286   0.0875641), wk =   0.0078125
        k(   14) = (   0.2365476   0.1892381   0.0875641), wk =   0.0078125
        k(   15) = (   0.2838571   0.2365476   0.0875641), wk =   0.0078125
        k(   16) = (   0.3311667   0.2838571   0.0875641), wk =   0.0078125
        k(   17) = (   0.3784762   0.3311667   0.0875641), wk =   0.0078125
        k(   18) = (   0.0946190   0.0000000   0.1751282), wk =   0.0039062
        k(   19) = (   0.1419286   0.0473095   0.1751282), wk =   0.0078125
        k(   20) = (   0.1892381   0.0946190   0.1751282), wk =   0.0078125
        k(   21) = (   0.2365476   0.1419286   0.1751282), wk =   0.0078125
        k(   22) = (   0.2838571   0.1892381   0.1751282), wk =   0.0078125
        k(   23) = (   0.3311667   0.2365476   0.1751282), wk =   0.0078125
        k(   24) = (   0.3784762   0.2838571   0.1751282), wk =   0.0078125
        k(   25) = (   0.4257857   0.3311667   0.1751282), wk =   0.0039062
        k(   26) = (   0.0473095  -0.0473095   0.1751282), wk =   0.0039062
        k(   27) = (   0.1419286   0.0000000   0.2626922), wk =   0.0039062
        k(   28) = (   0.1892381   0.0473095   0.2626922), wk =   0.0078125
        k(   29) = (   0.2365476   0.0946190   0.2626922), wk =   0.0078125
        k(   30) = (   0.2838571   0.1419286   0.2626922), wk =   0.0078125
        k(   31) = (   0.3311667   0.1892381   0.2626922), wk =   0.0078125
        k(   32) = (   0.3784762   0.2365476   0.2626922), wk =   0.0078125
        k(   33) = (   0.4257857   0.2838571   0.2626922), wk =   0.0078125
        k(   34) = (   0.0473095  -0.0946190   0.2626922), wk =   0.0078125
        k(   35) = (   0.1892381   0.0000000   0.3502563), wk =   0.0039062
        k(   36) = (   0.2365476   0.0473095   0.3502563), wk =   0.0078125
        k(   37) = (   0.2838571   0.0946190   0.3502563), wk =   0.0078125
        k(   38) = (   0.3311667   0.1419286   0.3502563), wk =   0.0078125
        k(   39) = (   0.3784762   0.1892381   0.3502563), wk =   0.0078125
        k(   40) = (   0.4257857   0.2365476   0.3502563), wk =   0.0078125
        k(   41) = (   0.4730952   0.2838571   0.3502563), wk =   0.0039062
        k(   42) = (   0.0473095  -0.1419286   0.3502563), wk =   0.0078125
        k(   43) = (   0.0946190  -0.0946190   0.3502563), wk =   0.0039062
        k(   44) = (   0.2365476   0.0000000   0.4378204), wk =   0.0039062
        k(   45) = (   0.2838571   0.0473095   0.4378204), wk =   0.0078125
        k(   46) = (   0.3311667   0.0946190   0.4378204), wk =   0.0078125
        k(   47) = (   0.3784762   0.1419286   0.4378204), wk =   0.0078125
        k(   48) = (   0.4257857   0.1892381   0.4378204), wk =   0.0078125
        k(   49) = (   0.4730952   0.2365476   0.4378204), wk =   0.0078125
        k(   50) = (   0.0473095  -0.1892381   0.4378204), wk =   0.0078125
        k(   51) = (   0.0946190  -0.1419286   0.4378204), wk =   0.0078125
        k(   52) = (   0.2838571   0.0000000   0.5253845), wk =   0.0039062
        k(   53) = (   0.3311667   0.0473095   0.5253845), wk =   0.0078125
        k(   54) = (   0.3784762   0.0946190   0.5253845), wk =   0.0078125
        k(   55) = (   0.4257857   0.1419286   0.5253845), wk =   0.0078125
        k(   56) = (   0.4730952   0.1892381   0.5253845), wk =   0.0078125
        k(   57) = (   0.5204047   0.2365476   0.5253845), wk =   0.0039062
        k(   58) = (   0.0473095  -0.2365476   0.5253845), wk =   0.0078125
        k(   59) = (   0.0946190  -0.1892381   0.5253845), wk =   0.0078125
        k(   60) = (   0.1419286  -0.1419286   0.5253845), wk =   0.0039062
[...]
        k(  335) = (  -0.6150238  -0.1419286   0.0000000), wk =   0.0019531
        k(  336) = (   0.0000000   0.0000000   1.0507689), wk =   0.0009766
        k(  337) = (   0.0000000  -0.0473095   1.1383330), wk =   0.0039062
        k(  338) = (  -0.7569524  -0.0946190  -0.1751282), wk =   0.0039062
        k(  339) = (  -0.7096428  -0.0473095  -0.1751282), wk =   0.0039062
        k(  340) = (   0.0000000   0.6150238  -0.0875641), wk =   0.0039062
        k(  341) = (  -0.7096428  -0.0946190  -0.0875641), wk =   0.0078125
        k(  342) = (   0.0000000   0.5677143   0.0000000), wk =   0.0019531
        k(  343) = (   0.0473095   0.6150238   0.0000000), wk =   0.0039062
        k(  344) = (  -0.6623333  -0.0946190   0.0000000), wk =   0.0019531
        k(  345) = (   0.0000000   0.0000000   1.2258971), wk =   0.0009766
        k(  346) = (  -0.7569524  -0.0473095  -0.0875641), wk =   0.0039062
        k(  347) = (   0.0000000   0.6623333   0.0000000), wk =   0.0019531
        k(  348) = (  -0.7096428  -0.0473095   0.0000000), wk =   0.0019531
        k(  349) = (  -0.7569524  -0.7569524  -1.4010252), wk =   0.0004883

                       cryst. coord.
        k(    1) = (   0.0000000   0.0000000   0.0000000), wk =   0.0004883
        k(    2) = (   0.0000000   0.0000000   0.0625000), wk =   0.0019531
        k(    3) = (   0.0000000   0.0000000   0.1250000), wk =   0.0019531
        k(    4) = (   0.0000000   0.0000000   0.1875000), wk =   0.0019531
        k(    5) = (   0.0000000   0.0000000   0.2500000), wk =   0.0019531
        k(    6) = (   0.0000000   0.0000000   0.3125000), wk =   0.0019531
        k(    7) = (   0.0000000   0.0000000   0.3750000), wk =   0.0019531
        k(    8) = (   0.0000000   0.0000000   0.4375000), wk =   0.0019531
        k(    9) = (   0.0000000   0.0000000  -0.5000000), wk =   0.0009766
        k(   10) = (   0.0000000   0.0625000   0.0000000), wk =   0.0039062
        k(   11) = (   0.0000000   0.0625000   0.0625000), wk =   0.0078125
        k(   12) = (   0.0000000   0.0625000   0.1250000), wk =   0.0078125
        k(   13) = (   0.0000000   0.0625000   0.1875000), wk =   0.0078125
        k(   14) = (   0.0000000   0.0625000   0.2500000), wk =   0.0078125
        k(   15) = (   0.0000000   0.0625000   0.3125000), wk =   0.0078125
        k(   16) = (   0.0000000   0.0625000   0.3750000), wk =   0.0078125
        k(   17) = (   0.0000000   0.0625000   0.4375000), wk =   0.0078125
        k(   18) = (   0.0000000   0.1250000   0.0000000), wk =   0.0039062
        k(   19) = (   0.0000000   0.1250000   0.0625000), wk =   0.0078125
        k(   20) = (   0.0000000   0.1250000   0.1250000), wk =   0.0078125
        k(   21) = (   0.0000000   0.1250000   0.1875000), wk =   0.0078125
        k(   22) = (   0.0000000   0.1250000   0.2500000), wk =   0.0078125
        k(   23) = (   0.0000000   0.1250000   0.3125000), wk =   0.0078125
        k(   24) = (   0.0000000   0.1250000   0.3750000), wk =   0.0078125
        k(   25) = (   0.0000000   0.1250000   0.4375000), wk =   0.0039062
        k(   26) = (   0.0000000   0.1250000  -0.0625000), wk =   0.0039062
        k(   27) = (   0.0000000   0.1875000   0.0000000), wk =   0.0039062
        k(   28) = (   0.0000000   0.1875000   0.0625000), wk =   0.0078125
        k(   29) = (   0.0000000   0.1875000   0.1250000), wk =   0.0078125
        k(   30) = (   0.0000000   0.1875000   0.1875000), wk =   0.0078125
        k(   31) = (   0.0000000   0.1875000   0.2500000), wk =   0.0078125
        k(   32) = (   0.0000000   0.1875000   0.3125000), wk =   0.0078125
        k(   33) = (   0.0000000   0.1875000   0.3750000), wk =   0.0078125
        k(   34) = (   0.0000000   0.1875000  -0.1250000), wk =   0.0078125
        k(   35) = (   0.0000000   0.2500000   0.0000000), wk =   0.0039062
        k(   36) = (   0.0000000   0.2500000   0.0625000), wk =   0.0078125
        k(   37) = (   0.0000000   0.2500000   0.1250000), wk =   0.0078125
        k(   38) = (   0.0000000   0.2500000   0.1875000), wk =   0.0078125
        k(   39) = (   0.0000000   0.2500000   0.2500000), wk =   0.0078125
        k(   40) = (   0.0000000   0.2500000   0.3125000), wk =   0.0078125
        k(   41) = (   0.0000000   0.2500000   0.3750000), wk =   0.0039062
        k(   42) = (   0.0000000   0.2500000  -0.1875000), wk =   0.0078125
        k(   43) = (   0.0000000   0.2500000  -0.1250000), wk =   0.0039062
        k(   44) = (   0.0000000   0.3125000   0.0000000), wk =   0.0039062
        k(   45) = (   0.0000000   0.3125000   0.0625000), wk =   0.0078125
        k(   46) = (   0.0000000   0.3125000   0.1250000), wk =   0.0078125
        k(   47) = (   0.0000000   0.3125000   0.1875000), wk =   0.0078125
        k(   48) = (   0.0000000   0.3125000   0.2500000), wk =   0.0078125
        k(   49) = (   0.0000000   0.3125000   0.3125000), wk =   0.0078125
        k(   50) = (   0.0000000   0.3125000  -0.2500000), wk =   0.0078125
        k(   51) = (   0.0000000   0.3125000  -0.1875000), wk =   0.0078125
        k(   52) = (   0.0000000   0.3750000   0.0000000), wk =   0.0039062
        k(   53) = (   0.0000000   0.3750000   0.0625000), wk =   0.0078125
        k(   54) = (   0.0000000   0.3750000   0.1250000), wk =   0.0078125
        k(   55) = (   0.0000000   0.3750000   0.1875000), wk =   0.0078125
        k(   56) = (   0.0000000   0.3750000   0.2500000), wk =   0.0078125
        k(   57) = (   0.0000000   0.3750000   0.3125000), wk =   0.0039062
        k(   58) = (   0.0000000   0.3750000  -0.3125000), wk =   0.0078125
        k(   59) = (   0.0000000   0.3750000  -0.2500000), wk =   0.0078125
        k(   60) = (   0.0000000   0.3750000  -0.1875000), wk =   0.0039062
[...]
        k(  335) = (   0.3125000  -0.3125000  -0.5000000), wk =   0.0019531
        k(  336) = (   0.3750000   0.3750000  -0.3750000), wk =   0.0009766
        k(  337) = (   0.3750000   0.4375000  -0.4375000), wk =   0.0039062
        k(  338) = (   0.3750000  -0.5000000  -0.5000000), wk =   0.0039062
        k(  339) = (   0.3750000  -0.5000000  -0.4375000), wk =   0.0039062
        k(  340) = (   0.3750000  -0.4375000   0.4375000), wk =   0.0039062
        k(  341) = (   0.3750000  -0.4375000  -0.5000000), wk =   0.0078125
        k(  342) = (   0.3750000  -0.3750000   0.3750000), wk =   0.0019531
        k(  343) = (   0.3750000  -0.3750000   0.4375000), wk =   0.0039062
        k(  344) = (   0.3750000  -0.3750000  -0.5000000), wk =   0.0019531
        k(  345) = (   0.4375000   0.4375000  -0.4375000), wk =   0.0009766
        k(  346) = (   0.4375000  -0.5000000  -0.5000000), wk =   0.0039062
        k(  347) = (   0.4375000  -0.4375000   0.4375000), wk =   0.0019531
        k(  348) = (   0.4375000  -0.4375000  -0.5000000), wk =   0.0019531
        k(  349) = (  -0.5000000  -0.5000000  -0.5000000), wk =   0.0004883

     Initial potential from superposition of free atoms

     starting charge   25.99992, renormalised to   28.00000
     Starting wfcs are   18 randomized atomic wfcs

     Self-consistent Calculation

     iteration #  1     ecut=    80.00 Ry     beta= 0.70
     Davidson diagonalization with overlap
     ethr =  1.00E-02,  avg # of iterations =  3.5

     total energy              =    -316.91282861 Ry
     Harris-Foulkes estimate   =    -318.87234220 Ry
     estimated scf accuracy    <       2.39160870 Ry

[...]

     total energy              =    -317.84391028 Ry
     Harris-Foulkes estimate   =    -317.84391028 Ry
     estimated scf accuracy    <          7.8E-13 Ry

     iteration # 10     ecut=    80.00 Ry     beta= 0.70
     Davidson diagonalization with overlap
     ethr =  1.00E-13,  avg # of iterations =  1.0

     End of self-consistent calculation

          k = 0.0000 0.0000 0.0000 (  4313 PWs)   bands (ev):

   -10.7341 -10.6528 -10.6033 -10.5963 -10.4267 -10.4267 -10.4161 -10.4161
   -10.3296 -10.2158  -0.4095   7.1882   8.8199   8.8199  13.7746  17.1355
    17.1355  18.0752

     occupation numbers
     1.0000   1.0000   1.0000   1.0000   1.0000   1.0000   1.0000   1.0000
     1.0000   1.0000   1.0000   1.0000   1.0000   1.0000   0.0000   0.0000
     0.0000   0.0000

[...]

          k =-0.3785-0.3785 0.0000 (  4374 PWs)   bands (ev):

[...]

          k = 0.0000 0.6623 0.0000 (  4364 PWs)   bands (ev):

[...]

          k =-0.7570-0.7570-1.4010 (  4352 PWs)   bands (ev):

   -10.6645 -10.6645 -10.4592 -10.4592 -10.4445 -10.4445 -10.4236 -10.4236
   -10.4115 -10.4115   3.2275   3.2275   5.9449   5.9449  16.1347  16.1347
    20.3314  20.3314

     occupation numbers
     1.0000   1.0000   1.0000   1.0000   1.0000   1.0000   1.0000   1.0000
     1.0000   1.0000   1.0000   1.0000   1.0000   1.0000   0.0000   0.0000
     0.0000   0.0000

     the Fermi energy is    10.8896 ev

!    total energy              =    -317.84391028 Ry
     Harris-Foulkes estimate   =    -317.84391028 Ry
     estimated scf accuracy    <          3.5E-15 Ry

     The total energy is the sum of the following terms:

     one-electron contribution =    -109.43088499 Ry
     hartree contribution      =      75.25167243 Ry
     xc contribution           =     -85.14772439 Ry
     ewald contribution        =    -198.51692357 Ry
     smearing contrib. (-TS)   =      -0.00004975 Ry

     convergence has been achieved in  10 iterations

     Forces acting on atoms (cartesian axes, Ry/au):

     atom    1 type  1   force =     0.00000000    0.00000000    0.00000000
     atom    2 type  1   force =     0.00000000    0.00000000    0.00000000
     The non-local contrib.  to forces
     atom    1 type  1   force =     0.00000000    0.00000000    0.00000000
     atom    2 type  1   force =     0.00000000    0.00000000    0.00000000
     The ionic contribution  to forces
     atom    1 type  1   force =    -0.00000000    0.00000000    0.00000000
     atom    2 type  1   force =     0.00000000   -0.00000000   -0.00000000
     The local contribution  to forces
     atom    1 type  1   force =     0.00000000   -0.00000000    0.00000000
     atom    2 type  1   force =     0.00000000   -0.00000000    0.00000000
     The core correction contribution to forces
     atom    1 type  1   force =     0.00000000   -0.00000000   -0.00000000
     atom    2 type  1   force =     0.00000000   -0.00000000    0.00000000
     The Hubbard contrib.    to forces
     atom    1 type  1   force =     0.00000000    0.00000000    0.00000000
     atom    2 type  1   force =     0.00000000    0.00000000    0.00000000
     The SCF correction term to forces
     atom    1 type  1   force =    -0.00000000   -0.00000000    0.00000000
     atom    2 type  1   force =     0.00000000   -0.00000000    0.00000000

     Total force =     0.000000     Total SCF correction =     0.000000

     Computing stress (Cartesian axis) and pressure

          total   stress  (Ry/bohr**3)                   (kbar)     P=    0.05
   0.00000012   0.00000000   0.00000000          0.02      0.00      0.00
   0.00000000   0.00000012   0.00000000          0.00      0.02      0.00
   0.00000000   0.00000000   0.00000069          0.00      0.00      0.10

     kinetic stress (kbar)   8303.42      0.00      0.00
                                0.00   8303.42      0.00
                                0.00      0.00   8295.56

     local   stress (kbar)   5030.34      0.00     -0.00
                                0.00   5030.34      0.00
                               -0.00      0.00   4383.47

     nonloc. stress (kbar)  10211.91     -0.00     -0.00
                               -0.00  10211.91     -0.00
                               -0.00     -0.00  10180.48

     hartree stress (kbar)  10163.10     -0.00     -0.00
                               -0.00  10163.10      0.00
                               -0.00      0.00  10460.30

     exc-cor stress (kbar)  13081.47     -0.00     -0.00
                               -0.00  13081.47     -0.00
                               -0.00     -0.00  13080.80

     corecor stress (kbar) -19588.72     -0.00     -0.00
                               -0.00 -19588.72      0.00
                               -0.00      0.00 -19587.49

     ewald   stress (kbar) -27201.50      0.00      0.00
                                0.00 -27201.50     -0.00
                                0.00     -0.00 -26813.02

     hubbard stress (kbar)      0.00      0.00      0.00
                                0.00      0.00      0.00
                                0.00      0.00      0.00

     london  stress (kbar)      0.00      0.00      0.00
                                0.00      0.00      0.00
                                0.00      0.00      0.00

     DFT-D3  stress (kbar)      0.00      0.00      0.00
                                0.00      0.00      0.00
                                0.00      0.00      0.00

     XDM     stress (kbar)      0.00      0.00      0.00
                                0.00      0.00      0.00
                                0.00      0.00      0.00

     dft-nl  stress (kbar)      0.00      0.00      0.00
                                0.00      0.00      0.00
                                0.00      0.00      0.00

     TS-vdW  stress (kbar)      0.00      0.00      0.00
                                0.00      0.00      0.00
                                0.00      0.00      0.00

     Writing output data file scf.save/

     General routines

     Parallel routines

   This run was terminated on:  14:38: 7  10Nov2020

   JOB DONE.