     Program PHONON v.6.3 starts on 10Nov2020 at 14:39:29

     K-points division:     npool     =      64
     R & G space division:  proc/nbgrp/npool/nimage =       4
      Title line not specified: using 'default'.
      Title line not specified: using 'default'.
      Title line not specified: using 'default'.
      Title line not specified: using 'default'.
      Title line not specified: using 'default'.
      Title line not specified: using 'default'.
      Title line not specified: using 'default'.
      Title line not specified: using 'default'.
      Title line not specified: using 'default'.
      Title line not specified: using 'default'.
      Title line not specified: using 'default'.
      Title line not specified: using 'default'.
      Title line not specified: using 'default'.
      Title line not specified: using 'default'.
      Title line not specified: using 'default'.
      Title line not specified: using 'default'.
      Title line not specified: using 'default'.
      Title line not specified: using 'default'.
      Title line not specified: using 'default'.
      Title line not specified: using 'default'.
      Title line not specified: using 'default'.
      Title line not specified: using 'default'.
      Title line not specified: using 'default'.
      Title line not specified: using 'default'.
      Title line not specified: using 'default'.
      Title line not specified: using 'default'.
      Title line not specified: using 'default'.
      Title line not specified: using 'default'.
      Title line not specified: using 'default'.
      Title line not specified: using 'default'.
      Title line not specified: using 'default'.
      Title line not specified: using 'default'.
      Title line not specified: using 'default'.
      Title line not specified: using 'default'.
      Title line not specified: using 'default'.
      Title line not specified: using 'default'.
      Title line not specified: using 'default'.
      Title line not specified: using 'default'.
      Title line not specified: using 'default'.
      Title line not specified: using 'default'.
      Title line not specified: using 'default'.
      Title line not specified: using 'default'.
      Title line not specified: using 'default'.
      Title line not specified: using 'default'.
      Title line not specified: using 'default'.
      Title line not specified: using 'default'.
      Title line not specified: using 'default'.
      Title line not specified: using 'default'.
      Title line not specified: using 'default'.
      Title line not specified: using 'default'.
      Title line not specified: using 'default'.
      Title line not specified: using 'default'.
      Title line not specified: using 'default'.
      Title line not specified: using 'default'.
      Title line not specified: using 'default'.
      Title line not specified: using 'default'.
      Title line not specified: using 'default'.
      Title line not specified: using 'default'.
      Title line not specified: using 'default'.
      Title line not specified: using 'default'.
[...]
      Title line not specified: using 'default'.
      Title line not specified: using 'default'.
      Title line not specified: using 'default'.
      Title line not specified: using 'default'.
      Title line not specified: using 'default'.
      Title line not specified: using 'default'.
      Title line not specified: using 'default'.
      Title line not specified: using 'default'.
      Title line not specified: using 'default'.
      Title line not specified: using 'default'.
      Title line not specified: using 'default'.
      Title line not specified: using 'default'.
      Title line not specified: using 'default'.
      Title line not specified: using 'default'.
      Title line not specified: using 'default'.

     Reading data from directory:
     /n/kozinsky_lab/Users/xiey/Stanene/beta-0/scf/out/scf.save/

     IMPORTANT: XC functional enforced from input :
     Exchange-correlation      = PBESOL ( 1  4 10  8 0 0)
     Any further DFT definition will be discarded
     Please, verify this is what you really want

     Dynamical matrices for ( 8, 8, 8)  uniform grid of q-points
     (  59 q-points):
       N         xq(1)         xq(2)         xq(3)
       1   0.000000000   0.000000000   0.000000000
       2   0.094619044   0.094619044   0.000000000
       3   0.189238088   0.189238088   0.000000000
       4   0.283857132   0.283857132   0.000000000
       5  -0.378476176  -0.378476176   0.000000000
       6   0.094619044   0.000000000   0.175128152
       7   0.189238088   0.094619044   0.175128152
       8   0.283857132   0.189238088   0.175128152
       9   0.378476176   0.283857132   0.175128152
      10   0.189238088   0.000000000   0.350256303
      11   0.283857132   0.094619044   0.350256303
      12   0.378476176   0.189238088   0.350256303
      13   0.473095220   0.283857132   0.350256303
      14   0.094619044  -0.094619044   0.350256303
      15   0.283857132   0.000000000   0.525384455
      16   0.378476176   0.094619044   0.525384455
      17   0.473095220   0.189238088   0.525384455
      18   0.094619044  -0.189238088   0.525384455
      19  -0.378476176   0.000000000  -0.700512607
      20  -0.283857132   0.094619044  -0.700512607
      21  -0.189238088   0.189238088  -0.700512607
      22   0.189238088   0.189238088   0.350256303
      23   0.283857132   0.283857132   0.350256303
      24   0.378476176   0.378476176   0.350256303
      25   0.000000000   0.000000000   0.350256303
      26   0.283857132   0.189238088   0.525384455
      27   0.378476176   0.283857132   0.525384455
      28   0.000000000  -0.094619044   0.525384455
      29   0.378476176   0.189238088   0.700512607
      30   0.473095220   0.283857132   0.700512607
      31   0.000000000  -0.189238088   0.700512607
      32   0.094619044  -0.094619044   0.700512607
      33  -0.756952352  -0.283857132  -0.525384455
      34  -0.662333308  -0.189238088  -0.525384455
      35   0.000000000   0.378476176  -0.350256303
      36  -0.662333308  -0.283857132  -0.350256303
      37  -0.567714264  -0.189238088  -0.350256303
      38   0.000000000   0.283857132  -0.175128152
      39   0.094619044   0.378476176  -0.175128152
      40  -0.567714264  -0.283857132  -0.175128152
      41   0.000000000   0.189238088   0.000000000
      42   0.094619044   0.283857132   0.000000000
      43   0.189238088   0.378476176   0.000000000
      44  -0.473095220  -0.283857132   0.000000000
      45   0.378476176   0.378476176   0.700512607
      46   0.000000000   0.000000000   0.700512607
      47   0.000000000  -0.094619044   0.875640758
      48  -0.756952352  -0.189238088  -0.350256303
      49  -0.662333308  -0.094619044  -0.350256303
      50   0.000000000   0.473095220  -0.175128152
      51  -0.662333308  -0.189238088  -0.175128152
      52   0.000000000   0.378476176   0.000000000
      53   0.094619044   0.473095220   0.000000000
      54  -0.567714264  -0.189238088   0.000000000
      55   0.000000000   0.000000000   1.050768910
      56  -0.756952352  -0.094619044  -0.175128152
      57   0.000000000   0.567714264   0.000000000
      58  -0.662333308  -0.094619044   0.000000000
      59  -0.756952352  -0.756952352  -1.401025213

     Calculation of q =    0.0000000   0.0000000   0.0000000

     default

     bravais-lattice index     =            0
     lattice parameter (alat)  =       8.3266  a.u.
     unit-cell volume          =     359.5699 (a.u.)^3
     number of atoms/cell      =            2
     number of atomic types    =            1
     kinetic-energy cut-off    =      80.0000  Ry
     charge density cut-off    =     640.0000  Ry
     convergence threshold     =      1.0E-20
     beta                      =       0.7000
     number of iterations used =            4
     Exchange-correlation      = PBESOL ( 1  4 10  8 0 0)

     celldm(1)=   11.00011  celldm(2)=    1.00000  celldm(3)=    0.54028
     celldm(4)=    0.00000  celldm(5)=    0.00000  celldm(6)=    0.00000

     crystal axes: (cart. coord. in units of alat)
               a(1) = ( -0.6605  0.6605  0.3569 )
               a(2) = (  0.6605 -0.6605  0.3569 )
               a(3) = (  0.6605  0.6605 -0.3569 )

     reciprocal axes: (cart. coord. in units 2 pi/alat)
               b(1) = (  0.0000  0.7570  1.4010 )
               b(2) = (  0.7570  0.0000  1.4010 )
               b(3) = (  0.7570  0.7570  0.0000 )

     Atoms inside the unit cell:

     Cartesian axes

     site n.  atom      mass           positions (alat units)
        1     Sn 118.7100   tau(    1) = (    0.00000    0.00000    0.00000  )
        2     Sn 118.7100   tau(    2) = (    0.66054    0.00000    0.17844  )

     Computing dynamical matrix for
                    q = (   0.0000000   0.0000000   0.0000000 )

     17 Sym.Ops. (with q -> -q+G )

     G cutoff = 1123.9608  (  24580 G-vectors)     FFT grid: ( 72, 72, 72)
     G cutoff =  561.9804  (   8698 G-vectors)  smooth grid: ( 48, 48, 48)

     number of k points=   349  mv smearing, width (Ry)=  0.0100

     PseudoPot. # 1 for Sn read from file:
     /n/home08/xiey/q-e/pseudo/sn_pbesol_v1.4.uspp.F.UPF
     MD5 check sum: 463fec1d5456f1e96ec1bfcad4b7b038
     Pseudo is Ultrasoft + core correction, Zval = 14.0
     Generated by new atomic code, or converted to UPF format
     Using radial grid of  891 points,  6 beta functions with:
                l(1) =   0
                l(2) =   0
                l(3) =   1
                l(4) =   1
                l(5) =   2
                l(6) =   2
     Q(r) pseudized with  8 coefficients,  rinner =    1.350   1.350   1.350
                                                       1.350   1.350

     Mode symmetry, D_4h(4/mmm) point group:

     Atomic displacements:
     There are   4 irreducible representations

     Representation     1      1 modes -B_1g X_2  M_2  To be done

     Representation     2      2 modes -E_g  X_5  M_5  To be done

     Representation     3      1 modes -A_2u X_4' M_4'  To be done

     Representation     4      2 modes -E_u  X_5' M_5'  To be done

     Alpha used in Ewald sum =   2.8000

     Representation #  1 mode #   1

     Self-consistent Calculation

     Pert. #  1: Fermi energy shift (Ry) =    -1.7347E-18     0.0000E+00

      thresh= 1.000E-02 alpha_mix =  0.700 |ddv_scf|^2 =  2.081E-06

[...]

     End of self-consistent calculation

     Convergence has been achieved

     Representation #  2 modes #   2  3

[...]

     Pert. #  1: Fermi energy shift (Ry) =    -1.6156E-27    -7.1746E-43
     Pert. #  2: Fermi energy shift (Ry) =     3.0494E-27     1.2556E-42

[...]

     Number of q in the star =    1
     List of q in the star:
          1   0.000000000   0.000000000   0.000000000

     Diagonalizing the dynamical matrix

     q = (    0.000000000   0.000000000   0.000000000 )

     freq (    1) =      -0.056418 [THz] =      -1.881913 [cm-1]
     freq (    2) =      -0.055713 [THz] =      -1.858375 [cm-1]
     freq (    3) =      -0.055713 [THz] =      -1.858375 [cm-1]
     freq (    4) =       1.419473 [THz] =      47.348527 [cm-1]
     freq (    5) =       4.046489 [THz] =     134.976331 [cm-1]
     freq (    6) =       4.046489 [THz] =     134.976331 [cm-1]

     Mode symmetry, D_4h(4/mmm) point group:

     freq (  1 -  1) =         -1.9  [cm-1]   --> A_2u X_4' M_4'  I
     freq (  2 -  3) =         -1.9  [cm-1]   --> E_u  X_5' M_5'  I
     freq (  4 -  4) =         47.3  [cm-1]   --> B_1g X_2  M_2   R
     freq (  5 -  6) =        135.0  [cm-1]   --> E_g  X_5  M_5   R

[...]

     Subspace diagonalization in iterative solution of the eigenvalue problem:
     a serial algorithm will be used

     Title:
     default

     bravais-lattice index     =            0
     lattice parameter (alat)  =       8.3266  a.u.
     unit-cell volume          =     359.5699 (a.u.)^3
     number of atoms/cell      =            2
     number of atomic types    =            1
     number of electrons       =        28.00
     number of Kohn-Sham states=           18
     kinetic-energy cutoff     =      80.0000  Ry
     charge density cutoff     =     640.0000  Ry
     Exchange-correlation      = PBESOL ( 1  4 10  8 0 0)

[...]

     atomic species   valence    mass     pseudopotential
        Sn            14.00   118.71000     Sn( 1.00)

     16 Sym. Ops., with inversion, found

[...]

     site n.     atom                  positions (alat units)
         1           Sn  tau(   1) = (   0.0000000   0.0000000   0.0000000  )
         2           Sn  tau(   2) = (   0.6605436   0.0000000   0.1784408  )

[...]

     Number of k-points >= 100: set verbosity='high' to print them.

     The potential is recalculated from file :
     /n/kozinsky_lab/Users/xiey/Stanene/beta-0/scf/out/_ph0/scf.save/charge-density.dat

     Starting wfcs are   18 atomic wfcs

     Band Structure Calculation
     Davidson diagonalization with overlap

     ethr =  3.57E-11,  avg # of iterations = 17.7

     End of band structure calculation

     Number of k-points >= 100: set verbosity='high' to print the bands.

     the Fermi energy is    10.8896 ev

     Writing output data file scf.save/

[...]

      4 Sym.Ops. (no q -> -q+G )

[...]

     Mode symmetry, C_2v (mm2)  point group:

[...]

     Representation     1      1 modes -A_1  D_1  S_1  To be done

[...]

     freq (  1 -  1) =         11.1  [cm-1]   --> B_1  D_3  S_3
     freq (  2 -  2) =         16.6  [cm-1]   --> B_2  D_4  S_4
     freq (  3 -  3) =         36.6  [cm-1]   --> A_1  D_1  S_1
     freq (  4 -  4) =         53.2  [cm-1]   --> B_1  D_3  S_3
     freq (  5 -  5) =        129.4  [cm-1]   --> A_2  D_2  S_2
     freq (  6 -  6) =        131.2  [cm-1]   --> B_2  D_4  S_4

[...]

     Representation     1      2 modes -  To be done

[...]

     Mode symmetry, C_s (m)     point group:

[...]

     Representation     1      1 modes -A'  To be done

[...]

     Representation     5      1 modes -A''  To be done

[...]

     freq (  1 -  1) =         21.3  [cm-1]   --> A''
     freq (  2 -  2) =         27.6  [cm-1]   --> A'
     freq (  3 -  3) =         49.8  [cm-1]   --> A'
     freq (  4 -  4) =         66.8  [cm-1]   --> A'
     freq (  5 -  5) =        127.3  [cm-1]   --> A'
     freq (  6 -  6) =        134.6  [cm-1]   --> A''

[...]

     No symmetry!

[...]

     Mode symmetry, C_1 (1)     point group:

[...]

     Representation     1      1 modes -A  To be done

[...]

      25h

[...]

     freq (  1 -  1) =         29.4  [cm-1]   --> A
     freq (  2 -  2) =         41.3  [cm-1]   --> A
     freq (  3 -  3) =         59.8  [cm-1]   --> A
     freq (  4 -  4) =         77.5  [cm-1]   --> A
     freq (  5 -  5) =        121.4  [cm-1]   --> A
     freq (  6 -  6) =        129.8  [cm-1]   --> A

[...]

     freq (  1 -  1) =         33.8  [cm-1]   --> A''
     freq (  2 -  2) =         40.2  [cm-1]   --> A'
     freq (  3 -  3) =         84.8  [cm-1]   --> A'
     freq (  4 -  4) =         95.4  [cm-1]   --> A''
     freq (  5 -  5) =        128.9  [cm-1]   --> A''
     freq (  6 -  6) =        132.2  [cm-1]   --> A'

[...]

     freq (  1 -  1) =         57.8  [cm-1]   --> A''
     freq (  2 -  2) =         66.6  [cm-1]   --> A'
     freq (  3 -  3) =         89.7  [cm-1]   --> A'
     freq (  4 -  4) =         98.9  [cm-1]   --> A''
     freq (  5 -  5) =        112.6  [cm-1]   --> A''
     freq (  6 -  6) =        118.1  [cm-1]   --> A'

[...]

     Mode symmetry, C_4v (4mm)  point group:

[...]

     Representation     3      2 modes -E    G_5 D_5  To be done

[...]

     freq (  1 -  2) =         28.5  [cm-1]   --> E    G_5 D_5
     freq (  3 -  3) =         86.0  [cm-1]   --> A_1  G_1 D_1
     freq (  4 -  4) =         92.9  [cm-1]   --> B_1  G_3 D_2
     freq (  5 -  6) =        135.7  [cm-1]   --> E    G_5 D_5

[...]

     freq (  1 -  1) =         37.1  [cm-1]   --> A''
     freq (  2 -  2) =         42.0  [cm-1]   --> A'
     freq (  3 -  3) =        102.5  [cm-1]   --> A''
     freq (  4 -  4) =        105.1  [cm-1]   --> A'
     freq (  5 -  5) =        128.6  [cm-1]   --> A''
     freq (  6 -  6) =        130.2  [cm-1]   --> A'

[...]

      24h

[...]

     freq (  1 -  1) =         22.5  [cm-1]   --> A'
     freq (  2 -  2) =         26.5  [cm-1]   --> A''
     freq (  3 -  3) =         50.1  [cm-1]   --> A'
     freq (  4 -  4) =         89.4  [cm-1]   --> A'
     freq (  5 -  5) =        119.7  [cm-1]   --> A''
     freq (  6 -  6) =        130.9  [cm-1]   --> A''

[...]

     freq (  1 -  1) =         25.0  [cm-1]   --> A'
     freq (  2 -  2) =         28.4  [cm-1]   --> A''
     freq (  3 -  3) =         70.2  [cm-1]   --> A'
     freq (  4 -  4) =        106.0  [cm-1]   --> A''
     freq (  5 -  5) =        111.0  [cm-1]   --> A'
     freq (  6 -  6) =        129.9  [cm-1]   --> A''

[...]

     No symmetry!

[...]

     Representation     6      1 modes -A  To be done

[...]

     Mode symmetry, C_1 (1)     point group:

     freq (  1 -  1) =         28.9  [cm-1]   --> A
     freq (  2 -  2) =         46.1  [cm-1]   --> A
     freq (  3 -  3) =         67.6  [cm-1]   --> A
     freq (  4 -  4) =         73.0  [cm-1]   --> A
     freq (  5 -  5) =        136.3  [cm-1]   --> A
     freq (  6 -  6) =        139.7  [cm-1]   --> A

[...]

     freq (  1 -  1) =         27.3  [cm-1]   --> A'
     freq (  2 -  2) =         28.8  [cm-1]   --> A''
     freq (  3 -  3) =         50.8  [cm-1]   --> A'
     freq (  4 -  4) =         87.5  [cm-1]   --> A''
     freq (  5 -  5) =        128.8  [cm-1]   --> A'
     freq (  6 -  6) =        137.2  [cm-1]   --> A''

[...]

     Representation     4      2 modes -E    G_5 D_5  To be done

[...]

     Mode symmetry, C_4v (4mm)  point group:

     freq (  1 -  2) =         24.9  [cm-1]   --> E    G_5 D_5
     freq (  3 -  3) =         82.2  [cm-1]   --> B_1  G_3 D_2
     freq (  4 -  4) =        101.3  [cm-1]   --> A_1  G_1 D_1
     freq (  5 -  6) =        138.3  [cm-1]   --> E    G_5 D_5

[...]

     Representation     4      1 modes -A'  To be done

[...]

     Representation     6      1 modes -A''  To be done

[...]

     Mode symmetry, C_s (m)     point group:

     freq (  1 -  1) =         23.4  [cm-1]   --> A''
     freq (  2 -  2) =         30.7  [cm-1]   --> A'
     freq (  3 -  3) =         56.4  [cm-1]   --> A'
     freq (  4 -  4) =         72.1  [cm-1]   --> A'
     freq (  5 -  5) =        139.2  [cm-1]   --> A'
     freq (  6 -  6) =        140.7  [cm-1]   --> A''

[...]

     Representation     6      1 modes -B_2  D_4  S_4  To be done

[...]

     Representation #  6 mode #   6

[...]

     Mode symmetry, C_2v (mm2)  point group:

     freq (  1 -  1) =         24.6  [cm-1]   --> B_1  D_3  S_3
     freq (  2 -  2) =         29.9  [cm-1]   --> B_2  D_4  S_4
     freq (  3 -  3) =         42.5  [cm-1]   --> A_1  D_1  S_1
     freq (  4 -  4) =         68.3  [cm-1]   --> B_2  D_4  S_4
     freq (  5 -  5) =        139.2  [cm-1]   --> A_2  D_2  S_2
     freq (  6 -  6) =        139.2  [cm-1]   --> A_1  D_1  S_1

[...]

      4 Sym.Ops. (no q -> -q+G )

[...]

     Calculation of q =   -0.7569524  -0.7569524  -1.4010252

     Title:
     default

     bravais-lattice index     =            0
     lattice parameter (alat)  =       8.3266  a.u.
     unit-cell volume          =     359.5699 (a.u.)^3
     number of atoms/cell      =            2
     number of atomic types    =            1
     number of electrons       =        28.00
     number of Kohn-Sham states=           18
     kinetic-energy cutoff     =      80.0000  Ry
     charge density cutoff     =     640.0000  Ry
     Exchange-correlation      = PBESOL ( 1  4 10  8 0 0)

[...]

     atomic species   valence    mass     pseudopotential
        Sn            14.00   118.71000     Sn( 1.00)

     16 Sym. Ops., with inversion, found

[...]

     site n.     atom                  positions (alat units)
         1           Sn  tau(   1) = (   0.0000000   0.0000000   0.0000000  )
         2           Sn  tau(   2) = (   0.6605436   0.0000000   0.1784408  )

[...]

     Number of k-points >= 100: set verbosity='high' to print them.

     The potential is recalculated from file :
     /n/kozinsky_lab/Users/xiey/Stanene/beta-0/scf/out/_ph0/scf.save/charge-density.dat

     Starting wfcs are   18 atomic wfcs

     Band Structure Calculation
     Davidson diagonalization with overlap

     ethr =  3.57E-11,  avg # of iterations = 17.5

     End of band structure calculation

     Number of k-points >= 100: set verbosity='high' to print the bands.

     the Fermi energy is    10.8896 ev

     Writing output data file scf.save/

     default

     bravais-lattice index     =            0
     lattice parameter (alat)  =       8.3266  a.u.
     unit-cell volume          =     359.5699 (a.u.)^3
     number of atoms/cell      =            2
     number of atomic types    =            1
     kinetic-energy cut-off    =      80.0000  Ry
     charge density cut-off    =     640.0000  Ry
     convergence threshold     =      1.0E-20
     beta                      =       0.7000
     number of iterations used =            4
     Exchange-correlation      = PBESOL ( 1  4 10  8 0 0)

     celldm(1)=   11.00011  celldm(2)=    1.00000  celldm(3)=    0.54028
     celldm(4)=    0.00000  celldm(5)=    0.00000  celldm(6)=    0.00000

     crystal axes: (cart. coord. in units of alat)
               a(1) = ( -0.6605  0.6605  0.3569 )
               a(2) = (  0.6605 -0.6605  0.3569 )
               a(3) = (  0.6605  0.6605 -0.3569 )

     reciprocal axes: (cart. coord. in units 2 pi/alat)
               b(1) = (  0.0000  0.7570  1.4010 )
               b(2) = (  0.7570  0.0000  1.4010 )
               b(3) = (  0.7570  0.7570  0.0000 )

     Atoms inside the unit cell:

     Cartesian axes

     site n.  atom      mass           positions (alat units)
        1     Sn 118.7100   tau(    1) = (    0.00000    0.00000    0.00000  )
        2     Sn 118.7100   tau(    2) = (    0.66054    0.00000    0.17844  )

     Computing dynamical matrix for
                    q = (  -0.7569524  -0.7569524  -1.4010252 )

     17 Sym.Ops. (with q -> -q+G )

     G cutoff = 1123.9608  (  24580 G-vectors)     FFT grid: ( 72, 72, 72)
     G cutoff =  561.9804  (   8698 G-vectors)  smooth grid: ( 48, 48, 48)

     number of k points=   698  mv smearing, width (Ry)=  0.0100

     PseudoPot. # 1 for Sn read from file:
     /n/home08/xiey/q-e/pseudo/sn_pbesol_v1.4.uspp.F.UPF
     MD5 check sum: 463fec1d5456f1e96ec1bfcad4b7b038
     Pseudo is Ultrasoft + core correction, Zval = 14.0
     Generated by new atomic code, or converted to UPF format
     Using radial grid of  891 points,  6 beta functions with:
                l(1) =   0
                l(2) =   0
                l(3) =   1
                l(4) =   1
                l(5) =   2
                l(6) =   2
     Q(r) pseudized with  8 coefficients,  rinner =    1.350   1.350   1.350
                                                       1.350   1.350

     Atomic displacements:
     There are   3 irreducible representations

[...]

     Representation     3      2 modes -  To be done

     Alpha used in Ewald sum =   2.8000

[...]

     Representation #  3 modes #   5  6

     Self-consistent Calculation

[...]

      thresh= 2.162E-11 alpha_mix =  0.700 |ddv_scf|^2 =  2.219E-21

     End of self-consistent calculation

     Convergence has been achieved

     Number of q in the star =    1
     List of q in the star:
          1  -0.756952352  -0.756952352  -1.401025213

     Diagonalizing the dynamical matrix

     q = (   -0.756952352  -0.756952352  -1.401025213 )

     freq (    1) =       0.648339 [THz] =      21.626254 [cm-1]
     freq (    2) =       0.648339 [THz] =      21.626254 [cm-1]
     freq (    3) =       1.279501 [THz] =      42.679559 [cm-1]
     freq (    4) =       1.279501 [THz] =      42.679559 [cm-1]
     freq (    5) =       4.097122 [THz] =     136.665263 [cm-1]
     freq (    6) =       4.097122 [THz] =     136.665263 [cm-1]

     General routines

     Parallel routines

     INITIALIZATION:

     DYNAMICAL MATRIX:

      General routines

   This run was terminated on:   5:26:56  12Nov2020

   JOB DONE.