     Program PWSCF v.6.3 starts on 17Feb2020 at 19:53: 5

     K-points division:     npool     =      10
     R & G space division:  proc/nbgrp/npool/nimage =      16
     Reading input from scf.pwi
Warning: card &IONS ignored
Warning: card / ignored
Warning: card &CELL ignored
Warning: card    CELL_DOFREE      = '2DXY' ignored
Warning: card / ignored

     Current dimensions of program PWSCF are:
     Max number of different atomic species (ntypx) = 10
     Max number of k-points (npk) =  40000
     Max angular momentum in pseudopotentials (lmaxx) =  3

     bravais-lattice index     =            0
     lattice parameter (alat)  =      34.6317  a.u.
     unit-cell volume          =   39256.1391 (a.u.)^3
     number of atoms/cell      =           32
     number of atomic types    =            1
     number of electrons       =       448.00
     number of Kohn-Sham states=          269
     kinetic-energy cutoff     =      50.0000  Ry
     charge density cutoff     =     400.0000  Ry
     convergence threshold     =      1.0E-08
     mixing beta               =       0.4000
     number of iterations used =            8  plain     mixing
     Exchange-correlation      = SLA  PW   PSX  PSC ( 1  4 10  8 0 0)

     celldm(1)=  34.631719  celldm(2)=   0.000000  celldm(3)=   0.000000
     celldm(4)=   0.000000  celldm(5)=   0.000000  celldm(6)=   0.000000

     crystal axes: (cart. coord. in units of alat)
               a(1) = (   1.000000   0.000000   0.000000 )
               a(2) = (  -0.500000   0.866025   0.000000 )
               a(3) = (   0.000000   0.000000   1.091327 )

     reciprocal axes: (cart. coord. in units 2 pi/alat)
               b(1) = (  1.000000  0.577350  0.000000 )
               b(2) = (  0.000000  1.154701  0.000000 )
               b(3) = (  0.000000  0.000000  0.916316 )

     PseudoPot. # 1 for Sn read from file:
     /n/home08/xiey/q-e/pseudo/sn_pbesol_v1.4.uspp.F.UPF
     MD5 check sum: 463fec1d5456f1e96ec1bfcad4b7b038
     Pseudo is Ultrasoft + core correction, Zval = 14.0
     Generated by new atomic code, or converted to UPF format
     Using radial grid of  891 points,  6 beta functions with:
                l(1) =   0
                l(2) =   0
                l(3) =   1
                l(4) =   1
                l(5) =   2
                l(6) =   2
     Q(r) pseudized with  8 coefficients,  rinner =    1.350   1.350   1.350
                                                       1.350   1.350

     atomic species   valence    mass     pseudopotential
        Sn            14.00   118.71000     Sn( 1.00)

     No symmetry found

                                    s                        frac. trans.

      isym =  1     identity

 cryst.   s( 1) = (     1          0          0      )
                  (     0          1          0      )
                  (     0          0          1      )

 cart.    s( 1) = (  1.0000000  0.0000000  0.0000000 )
                  (  0.0000000  1.0000000  0.0000000 )
                  (  0.0000000  0.0000000  1.0000000 )

   Cartesian axes

     site n.     atom                  positions (alat units)
         1           Sn  tau(   1) = (  -0.0022634   0.0031734  -0.0211633  )
         2           Sn  tau(   2) = (   0.0009971   0.1467732   0.0189505  )
         3           Sn  tau(   3) = (  -0.1206169   0.2216544  -0.0240453  )
         4           Sn  tau(   4) = (  -0.1257714   0.3643509   0.0227931  )
         5           Sn  tau(   5) = (  -0.2491716   0.4381422  -0.0222048  )
         6           Sn  tau(   6) = (  -0.2489588   0.5803281   0.0288705  )
         7           Sn  tau(   7) = (  -0.3756586   0.6459530  -0.0155067  )
         8           Sn  tau(   8) = (  -0.3776223   0.7917213   0.0219483  )
         9           Sn  tau(   9) = (   0.2426418   0.0025285  -0.0247709  )
        10           Sn  tau(  10) = (   0.2512588   0.1446665   0.0283468  )
        11           Sn  tau(  11) = (   0.1285235   0.2185404  -0.0206542  )
        12           Sn  tau(  12) = (   0.1253573   0.3610199   0.0261157  )
        13           Sn  tau(  13) = (   0.0035515   0.4328021  -0.0186832  )
        14           Sn  tau(  14) = (  -0.0026988   0.5781508   0.0182905  )
        15           Sn  tau(  15) = (  -0.1277386   0.6526668  -0.0231191  )
        16           Sn  tau(  16) = (  -0.1295068   0.7986697   0.0201013  )
        17           Sn  tau(  17) = (   0.4986005   0.0013767  -0.0221895  )
        18           Sn  tau(  18) = (   0.5016115   0.1473243   0.0217781  )
        19           Sn  tau(  19) = (   0.3754062   0.2131182  -0.0263670  )
        20           Sn  tau(  20) = (   0.3734523   0.3556325   0.0248568  )
        21           Sn  tau(  21) = (   0.2522750   0.4275392  -0.0256158  )
        22           Sn  tau(  22) = (   0.2492276   0.5722912   0.0126734  )
        23           Sn  tau(  23) = (   0.1245878   0.6485771  -0.0194818  )
        24           Sn  tau(  24) = (   0.1233733   0.7945977   0.0222769  )
        25           Sn  tau(  25) = (   0.7510576  -0.0020341  -0.0184731  )
        26           Sn  tau(  26) = (   0.7549518   0.1449956   0.0173711  )
        27           Sn  tau(  27) = (   0.6288578   0.2196018  -0.0188960  )
        28           Sn  tau(  28) = (   0.6261052   0.3660994   0.0230647  )
        29           Sn  tau(  29) = (   0.4979438   0.4271251  -0.0253205  )
        30           Sn  tau(  30) = (   0.4987594   0.5697308   0.0209308  )
        31           Sn  tau(  31) = (   0.3760043   0.6441081  -0.0220487  )
        32           Sn  tau(  32) = (   0.3754631   0.7904815   0.0201713  )

   Crystallographic axes

     site n.     atom                  positions (cryst. coord.)
         1           Sn  tau(   1) = ( -0.0004312  0.0036643 -0.0193922  )
         2           Sn  tau(   2) = (  0.0857367  0.1694791  0.0173647  )
         3           Sn  tau(   3) = (  0.0073553  0.2559445 -0.0220331  )
         4           Sn  tau(   4) = (  0.0845867  0.4207162  0.0208857  )
         5           Sn  tau(   5) = (  0.0037899  0.5059230 -0.0203466  )
         6           Sn  tau(   6) = (  0.0860938  0.6701052  0.0264545  )
         7           Sn  tau(   7) = ( -0.0027174  0.7458823 -0.0142090  )
         8           Sn  tau(   8) = (  0.0794782  0.9142010  0.0201116  )
         9           Sn  tau(   9) = (  0.2441017  0.0029197 -0.0226979  )
        10           Sn  tau(  10) = (  0.3347820  0.1670465  0.0259746  )
        11           Sn  tau(  11) = (  0.2546978  0.2523487 -0.0189258  )
        12           Sn  tau(  12) = (  0.3337923  0.4168699  0.0239303  )
        13           Sn  tau(  13) = (  0.2534300  0.4997568 -0.0171197  )
        14           Sn  tau(  14) = (  0.3310967  0.6675910  0.0167599  )
        15           Sn  tau(  15) = (  0.2490788  0.7536347 -0.0211844  )
        16           Sn  tau(  16) = (  0.3316054  0.9222243  0.0184191  )
        17           Sn  tau(  17) = (  0.4993953  0.0015897 -0.0203326  )
        18           Sn  tau(  18) = (  0.5866692  0.1701154  0.0199557  )
        19           Sn  tau(  19) = (  0.4984500  0.2460876 -0.0241605  )
        20           Sn  tau(  20) = (  0.5787769  0.4106491  0.0227767  )
        21           Sn  tau(  21) = (  0.4991148  0.4936797 -0.0234722  )
        22           Sn  tau(  22) = (  0.5796401  0.6608250  0.0116128  )
        23           Sn  tau(  23) = (  0.4990439  0.7489123 -0.0178515  )
        24           Sn  tau(  24) = (  0.5821345  0.9175224  0.0204126  )
        25           Sn  tau(  25) = (  0.7498832 -0.0023488 -0.0169272  )
        26           Sn  tau(  26) = (  0.8386650  0.1674265  0.0159174  )
        27           Sn  tau(  27) = (  0.7556449  0.2535743 -0.0173147  )
        28           Sn  tau(  28) = (  0.8374727  0.4227351  0.0211346  )
        29           Sn  tau(  29) = (  0.7445446  0.4932015 -0.0232016  )
        30           Sn  tau(  30) = (  0.8276936  0.6578684  0.0191792  )
        31           Sn  tau(  31) = (  0.7478803  0.7437520 -0.0202036  )
        32           Sn  tau(  32) = (  0.8318478  0.9127694  0.0184833  )

     number of k points=    10  Marzari-Vanderbilt smearing, width (Ry)=  0.0200
                       cart. coord. in units 2pi/alat
        k(    1) = (   0.0000000   0.0000000   0.0000000), wk =   0.1250000
        k(    2) = (   0.0000000   0.2886751   0.0000000), wk =   0.2500000
        k(    3) = (   0.0000000  -0.5773503   0.0000000), wk =   0.1250000
        k(    4) = (   0.2500000   0.1443376   0.0000000), wk =   0.2500000
        k(    5) = (   0.2500000   0.4330127   0.0000000), wk =   0.2500000
        k(    6) = (   0.2500000  -0.4330127   0.0000000), wk =   0.2500000
        k(    7) = (   0.2500000  -0.1443376   0.0000000), wk =   0.2500000
        k(    8) = (  -0.5000000  -0.2886751   0.0000000), wk =   0.1250000
        k(    9) = (  -0.5000000   0.0000000   0.0000000), wk =   0.2500000
        k(   10) = (  -0.5000000  -0.8660254   0.0000000), wk =   0.1250000

                       cryst. coord.
        k(    1) = (   0.0000000   0.0000000   0.0000000), wk =   0.1250000
        k(    2) = (   0.0000000   0.2500000   0.0000000), wk =   0.2500000
        k(    3) = (   0.0000000  -0.5000000   0.0000000), wk =   0.1250000
        k(    4) = (   0.2500000   0.0000000   0.0000000), wk =   0.2500000
        k(    5) = (   0.2500000   0.2500000   0.0000000), wk =   0.2500000
        k(    6) = (   0.2500000  -0.5000000   0.0000000), wk =   0.2500000
        k(    7) = (   0.2500000  -0.2500000   0.0000000), wk =   0.2500000
        k(    8) = (  -0.5000000   0.0000000   0.0000000), wk =   0.1250000
        k(    9) = (  -0.5000000   0.2500000   0.0000000), wk =   0.2500000
        k(   10) = (  -0.5000000  -0.5000000   0.0000000), wk =   0.1250000

     Initial potential from superposition of free atoms

     starting charge  415.99867, renormalised to  448.00000

     negative rho (up, down):  1.617E-02 0.000E+00
     Starting wfcs are  288 randomized atomic wfcs

     Self-consistent Calculation

     iteration #  1     ecut=    50.00 Ry     beta= 0.40
     Davidson diagonalization with overlap
     ethr =  1.00E-02,  avg # of iterations = 10.0

     negative rho (up, down):  4.475E-03 0.000E+00

     total energy              =   -5076.61553570 Ry
     Harris-Foulkes estimate   =   -5101.88140591 Ry
     estimated scf accuracy    <      43.58418311 Ry

[...]

     iteration #  6     ecut=    50.00 Ry     beta= 0.40
     Davidson diagonalization with overlap
     c_bands:  1 eigenvalues not converged
     ethr =  1.21E-06,  avg # of iterations = 14.0

[...]

     total energy              =   -5084.00386500 Ry
     Harris-Foulkes estimate   =   -5084.00386501 Ry
     estimated scf accuracy    <       0.00000001 Ry

     iteration # 15     ecut=    50.00 Ry     beta= 0.40
     Davidson diagonalization with overlap
     ethr =  2.30E-12,  avg # of iterations =  2.8

[...]

     End of self-consistent calculation

          k = 0.0000 0.0000 0.0000 (234445 PWs)   bands (ev):

   -23.6075 -23.6007 -23.5967 -23.5891 -23.5828 -23.5806 -23.5696 -23.5657
[...]
     atom   13 type  1   force =    -0.00980928    0.01588030    0.17444014
     atom   14 type  1   force =     0.01405332    0.00043935   -0.17267515
     atom   15 type  1   force =     0.02487990   -0.01591106    0.18573661
     atom   16 type  1   force =     0.01981700   -0.00987068   -0.17110300
     atom   17 type  1   force =     0.00952621   -0.00774529    0.17868250
     atom   18 type  1   force =     0.01585697   -0.00615342   -0.17289615
     atom   19 type  1   force =     0.00719313    0.00135687    0.16865587
     atom   20 type  1   force =     0.00355469    0.01918798   -0.17908027
     atom   21 type  1   force =    -0.01086213    0.03591615    0.17225696
     atom   22 type  1   force =    -0.00497941    0.02614592   -0.17558683
     atom   23 type  1   force =     0.01789159   -0.01199782    0.17691028
     atom   24 type  1   force =     0.01414941   -0.01199061   -0.18679790
     atom   25 type  1   force =    -0.00470959    0.01555053    0.17606800
     atom   26 type  1   force =    -0.01199726   -0.01245809   -0.17759002
     atom   27 type  1   force =     0.00091521   -0.01480455    0.17380496
     atom   28 type  1   force =     0.00393721   -0.02065770   -0.17078924
     atom   29 type  1   force =     0.01224433    0.01989772    0.17480867
     atom   30 type  1   force =     0.00700161    0.03507454   -0.17172220
     atom   31 type  1   force =    -0.01400097    0.01210095    0.18005455
     atom   32 type  1   force =    -0.00774864   -0.00210428   -0.18457699
     The ionic contribution  to forces
     atom    1 type  1   force =    -0.29572121   -0.56168924  -15.48330803
     atom    2 type  1   force =    -0.08938059   -0.38902660   14.86990719
     atom    3 type  1   force =    -0.73911424   -0.05376881  -17.14754114
     atom    4 type  1   force =    -0.40925840   -0.01899786   16.61755833
     atom    5 type  1   force =     0.14162431   -0.17631773  -17.31813100
     atom    6 type  1   force =     0.60618920    0.17416119   19.73960185
     atom    7 type  1   force =    -0.74132388    0.39643592  -13.42864272
     atom    8 type  1   force =    -0.84031837   -0.19735224   15.77672697
     atom    9 type  1   force =    -0.16474327   -0.11931291  -18.14472653
     atom   10 type  1   force =     0.30313360   -0.62725753   20.05290559
     atom   11 type  1   force =    -0.15902539   -0.56474801  -16.13300529
     atom   12 type  1   force =     0.02502339    0.59429273   18.83319361
     atom   13 type  1   force =    -0.34230202    0.19365108  -14.80725650
     atom   14 type  1   force =    -0.30614607    0.77551817   13.99321515
     atom   15 type  1   force =     0.56995104    0.62019331  -17.13462563
     atom   16 type  1   force =     0.34505657    0.01758604   15.20347468
     atom   17 type  1   force =     0.56499082   -0.23634401  -16.06850737
     atom   18 type  1   force =     1.24870992   -0.52071422   16.18321047
     atom   19 type  1   force =     0.17049958   -0.75181979  -19.31884965
     atom   20 type  1   force =     0.51686921    0.13969150   18.84826926
     atom   21 type  1   force =    -0.33095243    0.15031448  -18.16608890
     atom   22 type  1   force =    -0.40890196    0.78116955   11.67108064
     atom   23 type  1   force =     0.09506106    1.03676496  -13.92302080
     atom   24 type  1   force =    -0.04514013    0.04709353   16.13172425
     atom   25 type  1   force =    -0.53762514    0.10813754  -13.87260063
     atom   26 type  1   force =     0.03907872   -0.55275739   13.38802664
     atom   27 type  1   force =     0.36077567   -0.47868378  -14.10746772
     atom   28 type  1   force =     0.54509411   -0.54635245   16.84442408
     atom   29 type  1   force =    -0.25511749   -0.54185379  -18.47615185
     atom   30 type  1   force =    -0.04676775    0.62790443   15.67245748
     atom   31 type  1   force =     0.08296700    1.39852229  -15.42475011
     atom   32 type  1   force =     0.09681412   -0.72444032   15.12889768
     The local contribution  to forces
     atom    1 type  1   force =     0.30480164    0.54412967   15.29694001
     atom    2 type  1   force =     0.10288611    0.41002137  -14.67710202
     atom    3 type  1   force =     0.73685624    0.06826857   16.96076759
     atom    4 type  1   force =     0.40590737    0.03074425  -16.43198235
     atom    5 type  1   force =    -0.14663783    0.19243492   17.12508639
     atom    6 type  1   force =    -0.58659881   -0.18339814  -19.56221901
     atom    7 type  1   force =     0.75070842   -0.40680798   13.23599274
     atom    8 type  1   force =     0.83821489    0.21243906  -15.59154981
     atom    9 type  1   force =     0.16387123    0.14238512   17.96987941
     atom   10 type  1   force =    -0.29168091    0.62504185  -19.87020668
     atom   11 type  1   force =     0.18589664    0.56064940   15.96472547
     atom   12 type  1   force =     0.00262661   -0.60028910  -18.64495550
     atom   13 type  1   force =     0.33518150   -0.20811907   14.62158756
     atom   14 type  1   force =     0.29140745   -0.77289367  -13.81101644
     atom   15 type  1   force =    -0.59085900   -0.59786941   16.94298353
     atom   16 type  1   force =    -0.36618030   -0.01123227  -15.02987939
     atom   17 type  1   force =    -0.57381271    0.24890728   15.88482579
     atom   18 type  1   force =    -1.25747784    0.51950404  -16.00531821
     atom   19 type  1   force =    -0.18276944    0.75227268   19.14607211
     atom   20 type  1   force =    -0.51076601   -0.15934170  -18.66376720
     atom   21 type  1   force =     0.33012256   -0.18853175   17.98586805
     atom   22 type  1   force =     0.41529545   -0.80573369  -11.48208888
     atom   23 type  1   force =    -0.11600017   -1.01550272   13.73576550
     atom   24 type  1   force =     0.03109671   -0.03959269  -15.93750829
     atom   25 type  1   force =     0.53678112   -0.11916980   13.68608763
     atom   26 type  1   force =    -0.02490452    0.56560810  -13.20335936
     atom   27 type  1   force =    -0.36464529    0.49605768   13.92868718
     atom   28 type  1   force =    -0.54427373    0.55591756  -16.66715749
     atom   29 type  1   force =     0.23679596    0.51931693   18.29360014
     atom   30 type  1   force =     0.04396122   -0.65823220  -15.49070378
     atom   31 type  1   force =    -0.06877512   -1.39767466   15.23491376
     atom   32 type  1   force =    -0.08465620    0.72110854  -14.93580329
     The core correction contribution to forces
     atom    1 type  1   force =    -0.00036522    0.00103041    0.00381331
     atom    2 type  1   force =    -0.00087242   -0.00024612   -0.00427520
     atom    3 type  1   force =     0.00103430   -0.00001022    0.00452723
     atom    4 type  1   force =    -0.00021160   -0.00037032   -0.00427266
     atom    5 type  1   force =     0.00004800   -0.00007753    0.00460300
     atom    6 type  1   force =    -0.00059481    0.00034542   -0.00548294
     atom    7 type  1   force =     0.00107864   -0.00005795    0.00378333
     atom    8 type  1   force =     0.00120452   -0.00007464   -0.00390815
     atom    9 type  1   force =    -0.00045136   -0.00024127    0.00465216
     atom   10 type  1   force =    -0.00038092    0.00023575   -0.00487713
     atom   11 type  1   force =     0.00013247    0.00066027    0.00455469
     atom   12 type  1   force =    -0.00121444   -0.00045471   -0.00518612
     atom   13 type  1   force =     0.00120066    0.00001929    0.00429787
     atom   14 type  1   force =     0.00065088   -0.00042562   -0.00369696
     atom   15 type  1   force =    -0.00063812   -0.00050341    0.00417586
     atom   16 type  1   force =     0.00019866    0.00002846   -0.00369843
     atom   17 type  1   force =    -0.00012930   -0.00025104    0.00383126
     atom   18 type  1   force =    -0.00105226    0.00044017   -0.00409909
     atom   19 type  1   force =     0.00064542    0.00021612    0.00524757
     atom   20 type  1   force =    -0.00088575    0.00001462   -0.00510445
     atom   21 type  1   force =     0.00093857    0.00038484    0.00487813
     atom   22 type  1   force =     0.00025629   -0.00020795   -0.00349273
     atom   23 type  1   force =    -0.00012043   -0.00094763    0.00339616
     atom   24 type  1   force =     0.00008117    0.00042248   -0.00371691
     atom   25 type  1   force =     0.00073374   -0.00059287    0.00362931
     atom   26 type  1   force =    -0.00050528    0.00036009   -0.00313222
     atom   27 type  1   force =     0.00022440   -0.00025790    0.00329097
     atom   28 type  1   force =    -0.00058384    0.00065097   -0.00445917
     atom   29 type  1   force =     0.00095816    0.00077287    0.00507330
     atom   30 type  1   force =    -0.00062348   -0.00047198   -0.00433525
     atom   31 type  1   force =    -0.00007864   -0.00158581    0.00375716
     atom   32 type  1   force =    -0.00067071    0.00125689   -0.00363685
     The Hubbard contrib.    to forces
     atom    1 type  1   force =     0.00000000    0.00000000    0.00000000
     atom    2 type  1   force =     0.00000000    0.00000000    0.00000000
     atom    3 type  1   force =     0.00000000    0.00000000    0.00000000
     atom    4 type  1   force =     0.00000000    0.00000000    0.00000000
     atom    5 type  1   force =     0.00000000    0.00000000    0.00000000
     atom    6 type  1   force =     0.00000000    0.00000000    0.00000000
     atom    7 type  1   force =     0.00000000    0.00000000    0.00000000
     atom    8 type  1   force =     0.00000000    0.00000000    0.00000000
     atom    9 type  1   force =     0.00000000    0.00000000    0.00000000
     atom   10 type  1   force =     0.00000000    0.00000000    0.00000000
     atom   11 type  1   force =     0.00000000    0.00000000    0.00000000
     atom   12 type  1   force =     0.00000000    0.00000000    0.00000000
     atom   13 type  1   force =     0.00000000    0.00000000    0.00000000
     atom   14 type  1   force =     0.00000000    0.00000000    0.00000000
     atom   15 type  1   force =     0.00000000    0.00000000    0.00000000
     atom   16 type  1   force =     0.00000000    0.00000000    0.00000000
     atom   17 type  1   force =     0.00000000    0.00000000    0.00000000
     atom   18 type  1   force =     0.00000000    0.00000000    0.00000000
     atom   19 type  1   force =     0.00000000    0.00000000    0.00000000
     atom   20 type  1   force =     0.00000000    0.00000000    0.00000000
     atom   21 type  1   force =     0.00000000    0.00000000    0.00000000
     atom   22 type  1   force =     0.00000000    0.00000000    0.00000000
     atom   23 type  1   force =     0.00000000    0.00000000    0.00000000
     atom   24 type  1   force =     0.00000000    0.00000000    0.00000000
     atom   25 type  1   force =     0.00000000    0.00000000    0.00000000
     atom   26 type  1   force =     0.00000000    0.00000000    0.00000000
     atom   27 type  1   force =     0.00000000    0.00000000    0.00000000
     atom   28 type  1   force =     0.00000000    0.00000000    0.00000000
     atom   29 type  1   force =     0.00000000    0.00000000    0.00000000
     atom   30 type  1   force =     0.00000000    0.00000000    0.00000000
     atom   31 type  1   force =     0.00000000    0.00000000    0.00000000
     atom   32 type  1   force =     0.00000000    0.00000000    0.00000000
     The SCF correction term to forces
     atom    1 type  1   force =     0.00001999    0.00001846   -0.00000601
     atom    2 type  1   force =     0.00002890   -0.00002714   -0.00000713
     atom    3 type  1   force =     0.00000428   -0.00003122   -0.00002067
     atom    4 type  1   force =     0.00000260    0.00000454   -0.00001135
     atom    5 type  1   force =    -0.00000533    0.00000492   -0.00004336
     atom    6 type  1   force =    -0.00000973    0.00003860   -0.00001331
     atom    7 type  1   force =     0.00001640    0.00002637   -0.00001679
     atom    8 type  1   force =     0.00002983    0.00001843    0.00000202
     atom    9 type  1   force =     0.00001336    0.00001520   -0.00001467
     atom   10 type  1   force =     0.00001799   -0.00001312   -0.00000216
     atom   11 type  1   force =     0.00003844   -0.00002804   -0.00002099
     atom   12 type  1   force =     0.00003976   -0.00000825   -0.00000352
     atom   13 type  1   force =     0.00002123    0.00000607   -0.00001737
     atom   14 type  1   force =     0.00001255    0.00001171    0.00000033
     atom   15 type  1   force =    -0.00001554    0.00003268   -0.00003180
     atom   16 type  1   force =    -0.00001998    0.00004074    0.00000935
     atom   17 type  1   force =    -0.00002372    0.00002849   -0.00001135
     atom   18 type  1   force =    -0.00002993   -0.00001003    0.00000429
     atom   19 type  1   force =    -0.00001210   -0.00002739   -0.00001623
     atom   20 type  1   force =    -0.00001736   -0.00002983    0.00001019
     atom   21 type  1   force =     0.00000113   -0.00001673   -0.00000619
     atom   22 type  1   force =     0.00000081    0.00000825    0.00000182
     atom   23 type  1   force =     0.00002323    0.00000476    0.00000352
     atom   24 type  1   force =     0.00000294    0.00001357    0.00001969
     atom   25 type  1   force =    -0.00001264   -0.00000067    0.00000108
     atom   26 type  1   force =    -0.00001153   -0.00003443   -0.00000174
     atom   27 type  1   force =    -0.00003493   -0.00002356   -0.00001995
     atom   28 type  1   force =    -0.00001848   -0.00001737   -0.00000580
     atom   29 type  1   force =    -0.00002176   -0.00002558   -0.00001534
     atom   30 type  1   force =    -0.00000639    0.00001159    0.00001020
     atom   31 type  1   force =    -0.00002341    0.00000278    0.00000885
     atom   32 type  1   force =    -0.00001585    0.00000022    0.00001381

     Total force =     0.053931     Total SCF correction =     0.000186

     Computing stress (Cartesian axis) and pressure

     negative rho (up, down):  2.762E-03 0.000E+00
          total   stress  (Ry/bohr**3)                   (kbar)     P=   -2.51
  -0.00001422  -0.00000239   0.00000191         -2.09     -0.35      0.28
  -0.00000239  -0.00001563  -0.00000053         -0.35     -2.30     -0.08
   0.00000191  -0.00000053  -0.00002134          0.28     -0.08     -3.14

     kinetic stress (kbar)   1206.74      0.15     -0.03
                                0.15   1206.78      0.00
                               -0.03      0.00   1218.92

     local   stress (kbar) -45043.49     40.76    -15.12
                               40.76 -45022.51      3.32
                              -15.12      3.32  45459.76

     nonloc. stress (kbar)   1507.56     -0.24      0.06
                               -0.24   1507.37      0.00
                                0.06      0.00   1477.68

     hartree stress (kbar)  23635.38    -15.17      5.38
                              -15.17  23627.47     -1.22
                                5.38     -1.22 -20182.47

     exc-cor stress (kbar)   1920.20     -0.02      0.00
                               -0.02   1920.19     -0.00
                                0.00     -0.00   1918.12

     corecor stress (kbar)  -2871.16      0.02     -0.01
                                0.02  -2871.15      0.00
                               -0.01      0.00  -2869.91

     ewald   stress (kbar)  19642.67    -25.86      9.99
                              -25.86  19629.54     -2.18
                                9.99     -2.18 -27025.23

     hubbard stress (kbar)      0.00      0.00      0.00
                                0.00      0.00      0.00
                                0.00      0.00      0.00

     london  stress (kbar)      0.00      0.00      0.00
                                0.00      0.00      0.00
                                0.00      0.00      0.00

     DFT-D3  stress (kbar)      0.00      0.00      0.00
                                0.00      0.00      0.00
                                0.00      0.00      0.00

     XDM     stress (kbar)      0.00      0.00      0.00
                                0.00      0.00      0.00
                                0.00      0.00      0.00

     dft-nl  stress (kbar)      0.00      0.00      0.00
                                0.00      0.00      0.00
                                0.00      0.00      0.00

     TS-vdW  stress (kbar)      0.00      0.00      0.00
                                0.00      0.00      0.00
                                0.00      0.00      0.00

     Writing output data file scf.save/

     General routines

     Parallel routines

   This run was terminated on:  20: 0:57  17Feb2020

   JOB DONE.