     Program PHONON v.6.3 starts on  1Nov2020 at 18:17:57

     K-points division:     npool     =       4
     R & G space division:  proc/nbgrp/npool/nimage =       8
      Title line not specified: using 'default'.
      Title line not specified: using 'default'.
      Title line not specified: using 'default'.
      Title line not specified: using 'default'.
      Title line not specified: using 'default'.
      Title line not specified: using 'default'.
      Title line not specified: using 'default'.
      Title line not specified: using 'default'.
      Title line not specified: using 'default'.
      Title line not specified: using 'default'.
      Title line not specified: using 'default'.
      Title line not specified: using 'default'.
      Title line not specified: using 'default'.
      Title line not specified: using 'default'.
      Title line not specified: using 'default'.
      Title line not specified: using 'default'.
      Title line not specified: using 'default'.
      Title line not specified: using 'default'.
      Title line not specified: using 'default'.
      Title line not specified: using 'default'.
      Title line not specified: using 'default'.
      Title line not specified: using 'default'.
      Title line not specified: using 'default'.
      Title line not specified: using 'default'.
      Title line not specified: using 'default'.
      Title line not specified: using 'default'.
      Title line not specified: using 'default'.
      Title line not specified: using 'default'.
      Title line not specified: using 'default'.
      Title line not specified: using 'default'.
      Title line not specified: using 'default'.
      Title line not specified: using 'default'.

     Reading data from directory:
     /n/holyscratch01/kozinsky_lab/xiey/Stanene_revise/alpha/Phonon/scf/out/scf.save/

     IMPORTANT: XC functional enforced from input :
     Exchange-correlation      = PBESOL ( 1  4 10  8 0 0)
     Any further DFT definition will be discarded
     Please, verify this is what you really want

     Dynamical matrices for ( 4, 4, 4)  uniform grid of q-points
     (   8 q-points):
       N         xq(1)         xq(2)         xq(3)
       1   0.000000000   0.000000000   0.000000000
       2   0.176776695   0.176776695  -0.176776695
       3  -0.353553391  -0.353553391   0.353553391
       4   0.353553391   0.000000000   0.000000000
       5  -0.176776695  -0.530330086   0.530330086
       6   0.000000000  -0.353553391   0.353553391
       7  -0.707106781   0.000000000   0.000000000
       8  -0.707106781   0.353553391   0.000000000

     Calculation of q =    0.0000000   0.0000000   0.0000000

     default

     bravais-lattice index     =            0
     lattice parameter (alat)  =       8.6588  a.u.
     unit-cell volume          =     459.0470 (a.u.)^3
     number of atoms/cell      =            2
     number of atomic types    =            1
     kinetic-energy cut-off    =      54.0000  Ry
     charge density cut-off    =     432.0000  Ry
     convergence threshold     =      1.0E-14
     beta                      =       0.7000
     number of iterations used =            4
     Exchange-correlation      = PBESOL ( 1  4 10  8 0 0)

     celldm(1)=   12.24538  celldm(2)=    0.00000  celldm(3)=    0.00000
     celldm(4)=    0.00000  celldm(5)=    0.00000  celldm(6)=    0.00000

     crystal axes: (cart. coord. in units of alat)
               a(1) = (  0.0000  0.7071  0.7071 )
               a(2) = (  0.7071  0.0000  0.7071 )
               a(3) = (  0.7071  0.7071  0.0000 )

     reciprocal axes: (cart. coord. in units 2 pi/alat)
               b(1) = ( -0.7071  0.7071  0.7071 )
               b(2) = (  0.7071 -0.7071  0.7071 )
               b(3) = (  0.7071  0.7071 -0.7071 )

     Atoms inside the unit cell:

     Cartesian axes

     site n.  atom      mass           positions (alat units)
        1     Sn 118.7100   tau(    1) = (    0.00000    0.00000    0.00000  )
        2     Sn 118.7100   tau(    2) = (    0.35355    0.35355    0.35355  )

     Computing dynamical matrix for
                    q = (   0.0000000   0.0000000   0.0000000 )

     49 Sym.Ops. (with q -> -q+G )

     G cutoff =  820.4248  (   8707 G-vectors)     FFT grid: ( 60, 60, 60)
     G cutoff =  410.2124  (   3087 G-vectors)  smooth grid: ( 48, 48, 48)

     number of k points=    47  mv smearing, width (Ry)=  0.0100

     PseudoPot. # 1 for Sn read from file:
     /n/home08/xiey/q-e/pseudo/sn_pbesol_v1.4.uspp.F.UPF
     MD5 check sum: 463fec1d5456f1e96ec1bfcad4b7b038
     Pseudo is Ultrasoft + core correction, Zval = 14.0
     Generated by new atomic code, or converted to UPF format
     Using radial grid of  891 points,  6 beta functions with:
                l(1) =   0
                l(2) =   0
                l(3) =   1
                l(4) =   1
                l(5) =   2
                l(6) =   2
     Q(r) pseudized with  8 coefficients,  rinner =    1.350   1.350   1.350
                                                       1.350   1.350

     Mode symmetry, O_h (m-3m)  point group:

     Atomic displacements:
     There are   2 irreducible representations

     Representation     1      3 modes -T_2g G_25' G_5+  To be done

     Representation     2      3 modes -T_1u G_15  G_4-  To be done

     Alpha used in Ewald sum =   2.8000

     Representation #  1 modes #   1  2  3

     Self-consistent Calculation

     Pert. #  1: Fermi energy shift (Ry) =     4.1633E-17    -2.3510E-38
     Pert. #  2: Fermi energy shift (Ry) =    -2.1829E-17     2.1306E-38
     Pert. #  3: Fermi energy shift (Ry) =    -4.0477E-18    -2.3020E-38

      thresh= 1.000E-02 alpha_mix =  0.700 |ddv_scf|^2 =  6.807E-07

[...]

     End of self-consistent calculation

     Convergence has been achieved

[...]

     Pert. #  1: Fermi energy shift (Ry) =    -6.5485E-25     1.0236E-40
     Pert. #  2: Fermi energy shift (Ry) =    -1.7233E-25    -6.5050E-41
     Pert. #  3: Fermi energy shift (Ry) =    -5.1699E-26    -8.1313E-42

[...]

     Number of q in the star =    1
     List of q in the star:
          1   0.000000000   0.000000000   0.000000000

     Diagonalizing the dynamical matrix

     q = (    0.000000000   0.000000000   0.000000000 )

     freq (    1) =       0.138859 [THz] =       4.631843 [cm-1]
     freq (    2) =       0.138859 [THz] =       4.631843 [cm-1]
     freq (    3) =       0.138859 [THz] =       4.631843 [cm-1]
     freq (    4) =       5.446543 [THz] =     181.677112 [cm-1]
     freq (    5) =       5.446543 [THz] =     181.677112 [cm-1]
     freq (    6) =       5.446543 [THz] =     181.677112 [cm-1]

     Mode symmetry, O_h (m-3m)  point group:

     freq (  1 -  3) =          4.6  [cm-1]   --> T_1u G_15  G_4- I
     freq (  4 -  6) =        181.7  [cm-1]   --> T_2g G_25' G_5+ R

[...]

     Title:
     default

     bravais-lattice index     =            0
     lattice parameter (alat)  =       8.6588  a.u.
     unit-cell volume          =     459.0470 (a.u.)^3
     number of atoms/cell      =            2
     number of atomic types    =            1
     number of electrons       =        28.00
     number of Kohn-Sham states=           18
     kinetic-energy cutoff     =      54.0000  Ry
     charge density cutoff     =     432.0000  Ry
     Exchange-correlation      = PBESOL ( 1  4 10  8 0 0)

[...]

     atomic species   valence    mass     pseudopotential
        Sn            14.00   118.71000     Sn( 1.00)

     48 Sym. Ops., with inversion, found

[...]

     site n.     atom                  positions (alat units)
         1           Sn  tau(   1) = (   0.0000000   0.0000000   0.0000000  )
         2           Sn  tau(   2) = (   0.3535534   0.3535534   0.3535534  )

[...]

     Number of k-points >= 100: set verbosity='high' to print them.

     The potential is recalculated from file :
     /n/holyscratch01/kozinsky_lab/xiey/Stanene_revise/alpha/Phonon/scf/out/_ph0/scf.save/charge-density.dat

     Starting wfcs are   18 atomic wfcs

     Band Structure Calculation
     Davidson diagonalization with overlap

     ethr =  3.57E-11,  avg # of iterations = 20.3

     End of band structure calculation

     Number of k-points >= 100: set verbosity='high' to print the bands.

     the Fermi energy is     7.7304 ev

     Writing output data file scf.save/

[...]

      6 Sym.Ops. (no q -> -q+G )

[...]

     Mode symmetry, C_3v (3m)   point group:

[...]

     Representation     1      1 modes -A_1  L_1  To be done

     Representation     2      1 modes -A_1  L_1  To be done

     Representation     3      2 modes -E    L_3  To be done

     Representation     4      2 modes -E    L_3  To be done

[...]

     Representation #  1 mode #   1

[...]

     Mode symmetry, C_3v (3m)   point group:

     freq (  1 -  2) =         27.4  [cm-1]   --> E    L_3
     freq (  3 -  3) =         82.1  [cm-1]   --> A_1  L_1
     freq (  4 -  4) =        182.5  [cm-1]   --> A_1  L_1
     freq (  5 -  6) =        188.8  [cm-1]   --> E    L_3

[...]

     Representation     1      1 modes -  To be done

[...]

     Mode symmetry, C_4v (4mm)  point group:

[...]

     Representation     1      1 modes -A_1  G_1 D_1  To be done

     Representation     2      1 modes -B_2  G_4 D_2'  To be done

     Representation     3      2 modes -E    G_5 D_5  To be done

     Representation     4      2 modes -E    G_5 D_5  To be done

[...]

     Mode symmetry, C_4v (4mm)  point group:

     freq (  1 -  2) =         37.0  [cm-1]   --> E    G_5 D_5
     freq (  3 -  3) =         86.6  [cm-1]   --> A_1  G_1 D_1
     freq (  4 -  5) =        184.9  [cm-1]   --> E    G_5 D_5
     freq (  6 -  6) =        186.2  [cm-1]   --> B_2  G_4 D_2'

[...]

     Mode symmetry, C_s (m)     point group:

[...]

     Representation     1      1 modes -A'  To be done

[...]

     Representation     4      1 modes -A'  To be done

     Representation     5      1 modes -A''  To be done

     Representation     6      1 modes -A''  To be done

[...]

     Mode symmetry, C_s (m)     point group:

     freq (  1 -  1) =         36.2  [cm-1]   --> A''
     freq (  2 -  2) =         54.1  [cm-1]   --> A'
     freq (  3 -  3) =        117.9  [cm-1]   --> A'
     freq (  4 -  4) =        158.4  [cm-1]   --> A'
     freq (  5 -  5) =        184.2  [cm-1]   --> A''
     freq (  6 -  6) =        187.4  [cm-1]   --> A'

[...]

     Mode symmetry, C_2v (mm2)  point group:

[...]

     Representation     6      1 modes -B_2  D_4  S_4  To be done

[...]

     Representation #  6 mode #   6

[...]

     Mode symmetry, C_2v (mm2)  point group:

     freq (  1 -  1) =         37.7  [cm-1]   --> B_1  D_3  S_3
     freq (  2 -  2) =         54.8  [cm-1]   --> B_2  D_4  S_4
     freq (  3 -  3) =        104.2  [cm-1]   --> A_1  D_1  S_1
     freq (  4 -  4) =        160.9  [cm-1]   --> B_2  D_4  S_4
     freq (  5 -  5) =        185.8  [cm-1]   --> A_2  D_2  S_2
     freq (  6 -  6) =        189.5  [cm-1]   --> A_1  D_1  S_1

[...]

     17 Sym.Ops. (with q -> -q+G )

[...]

     Calculation of q =   -0.7071068   0.3535534   0.0000000

     Title:
     default

     bravais-lattice index     =            0
     lattice parameter (alat)  =       8.6588  a.u.
     unit-cell volume          =     459.0470 (a.u.)^3
     number of atoms/cell      =            2
     number of atomic types    =            1
     number of electrons       =        28.00
     number of Kohn-Sham states=           18
     kinetic-energy cutoff     =      54.0000  Ry
     charge density cutoff     =     432.0000  Ry
     Exchange-correlation      = PBESOL ( 1  4 10  8 0 0)

[...]

     atomic species   valence    mass     pseudopotential
        Sn            14.00   118.71000     Sn( 1.00)

     48 Sym. Ops., with inversion, found

[...]

     site n.     atom                  positions (alat units)
         1           Sn  tau(   1) = (   0.0000000   0.0000000   0.0000000  )
         2           Sn  tau(   2) = (   0.3535534   0.3535534   0.3535534  )

[...]

     Number of k-points >= 100: set verbosity='high' to print them.

     The potential is recalculated from file :
     /n/holyscratch01/kozinsky_lab/xiey/Stanene_revise/alpha/Phonon/scf/out/_ph0/scf.save/charge-density.dat

     Starting wfcs are   18 atomic wfcs

     Band Structure Calculation
     Davidson diagonalization with overlap

     ethr =  3.57E-11,  avg # of iterations = 19.9

     End of band structure calculation

     Number of k-points >= 100: set verbosity='high' to print the bands.

     the Fermi energy is     7.7304 ev

     Writing output data file scf.save/

     default

     bravais-lattice index     =            0
     lattice parameter (alat)  =       8.6588  a.u.
     unit-cell volume          =     459.0470 (a.u.)^3
     number of atoms/cell      =            2
     number of atomic types    =            1
     kinetic-energy cut-off    =      54.0000  Ry
     charge density cut-off    =     432.0000  Ry
     convergence threshold     =      1.0E-14
     beta                      =       0.7000
     number of iterations used =            4
     Exchange-correlation      = PBESOL ( 1  4 10  8 0 0)

     celldm(1)=   12.24538  celldm(2)=    0.00000  celldm(3)=    0.00000
     celldm(4)=    0.00000  celldm(5)=    0.00000  celldm(6)=    0.00000

     crystal axes: (cart. coord. in units of alat)
               a(1) = (  0.0000  0.7071  0.7071 )
               a(2) = (  0.7071  0.0000  0.7071 )
               a(3) = (  0.7071  0.7071  0.0000 )

     reciprocal axes: (cart. coord. in units 2 pi/alat)
               b(1) = ( -0.7071  0.7071  0.7071 )
               b(2) = (  0.7071 -0.7071  0.7071 )
               b(3) = (  0.7071  0.7071 -0.7071 )

     Atoms inside the unit cell:

     Cartesian axes

     site n.  atom      mass           positions (alat units)
        1     Sn 118.7100   tau(    1) = (    0.00000    0.00000    0.00000  )
        2     Sn 118.7100   tau(    2) = (    0.35355    0.35355    0.35355  )

     Computing dynamical matrix for
                    q = (  -0.7071068   0.3535534   0.0000000 )

      8 Sym.Ops. (no q -> -q+G )

     G cutoff =  820.4248  (   8707 G-vectors)     FFT grid: ( 60, 60, 60)
     G cutoff =  410.2124  (   3087 G-vectors)  smooth grid: ( 48, 48, 48)

     number of k points=   316  mv smearing, width (Ry)=  0.0100

     PseudoPot. # 1 for Sn read from file:
     /n/home08/xiey/q-e/pseudo/sn_pbesol_v1.4.uspp.F.UPF
     MD5 check sum: 463fec1d5456f1e96ec1bfcad4b7b038
     Pseudo is Ultrasoft + core correction, Zval = 14.0
     Generated by new atomic code, or converted to UPF format
     Using radial grid of  891 points,  6 beta functions with:
                l(1) =   0
                l(2) =   0
                l(3) =   1
                l(4) =   1
                l(5) =   2
                l(6) =   2
     Q(r) pseudized with  8 coefficients,  rinner =    1.350   1.350   1.350
                                                       1.350   1.350

     Atomic displacements:
     There are   3 irreducible representations

[...]

     Representation     3      2 modes -  To be done

     Alpha used in Ewald sum =   2.8000

[...]

     Representation #  3 modes #   5  6

     Self-consistent Calculation

[...]

      thresh= 1.823E-08 alpha_mix =  0.700 |ddv_scf|^2 =  2.495E-16

     End of self-consistent calculation

     Convergence has been achieved

     Number of q in the star =    6
     List of q in the star:
          1  -0.707106781   0.353553391   0.000000000
          2   0.707106781   0.000000000   0.353553391
          3   0.707106781   0.000000000  -0.353553391
          4   0.707106781  -0.353553391   0.000000000
          5   0.353553391   0.000000000  -0.707106781
          6  -0.353553391   0.000000000   0.707106781

     Diagonalizing the dynamical matrix

     q = (   -0.707106781   0.353553391   0.000000000 )

     freq (    1) =       1.603991 [THz] =      53.503379 [cm-1]
     freq (    2) =       1.603991 [THz] =      53.503379 [cm-1]
     freq (    3) =       4.061373 [THz] =     135.472806 [cm-1]
     freq (    4) =       4.061373 [THz] =     135.472806 [cm-1]
     freq (    5) =       5.528515 [THz] =     184.411422 [cm-1]
     freq (    6) =       5.528515 [THz] =     184.411422 [cm-1]

     General routines

     Parallel routines

     INITIALIZATION:

     DYNAMICAL MATRIX:

      General routines

   This run was terminated on:  19: 2:10   1Nov2020

   JOB DONE.